; benchmark generated from python API
(set-info :status unknown)
(declare-datatypes ((RealState 0)) (((RMk1 (rval1 Real)) (RMk2 (rval2 Real)))))
 (assert
 (forall ((|v11:0| Real) )(exists ((|v10:1_st| RealState) (val!1932 Real) )(forall ((|v9:2| Real) )(exists ((|v8:3_st| RealState) (val!1933 Real) )(forall ((|v7:4| Real) )(exists ((|v6:5_st| RealState) (val!1934 Real) )(forall ((|v5:6| Real) )(exists ((|v4:7_st| RealState) (val!1935 Real) )(forall ((|v3:8| Real) )(exists ((|v2:9_st| RealState) (val!1936 Real) )(forall ((|v1:10| Real) )(exists ((|v0:11_st| RealState) (val!1937 Real) )(let ((?x753 (- 20.0)))
 (let ((?x3010 (* 16.0 |v3:8|)))
 (let ((?x2812 (+ (+ (+ (* 5.0 |v9:2|) (* 13.0 (rval2 |v2:9_st|))) (* 11.0 |v9:2|)) ?x3010)))
 (let ((?x291 (- 8.0)))
 (let ((?x2104 (* ?x291 |v1:10|)))
 (let ((?x264 (rval2 |v0:11_st|)))
 (let ((?x1880 (* 17.0 ?x264)))
 (let (($x605 (<= (+ (+ (+ (* (- 17.0) |v3:8|) (* 9.0 (rval2 |v8:3_st|))) ?x1880) ?x2104) 1.0)))
 (let ((?x2744 (- 16.0)))
 (let ((?x1672 (+ (+ (* (- 7.0) |v3:8|) (* (- 7.0) |v9:2|)) (* (- 9.0) |v1:10|))))
 (let ((?x441 (- 17.0)))
 (let ((?x124 (+ (+ (+ (* 3.0 (rval2 |v8:3_st|)) (* 16.0 |v7:4|)) (* 14.0 |v1:10|)) (* (- 13.0) (rval2 |v2:9_st|)))))
 (let (($x1244 (or (or (<= ?x124 ?x441) (<= (+ ?x1672 (* (- 14.0) (rval2 |v6:5_st|))) ?x2744)) (or $x605 (<= ?x2812 ?x753)))))
 (let ((?x2156 (- 7.0)))
 (let ((?x1343 (+ (+ (+ (* (- 12.0) |v1:10|) |v7:4|) (* (- 13.0) |v5:6|)) (* (- 13.0) |v9:2|))))
 (let ((?x1674 (rval2 |v4:7_st|)))
 (let ((?x903 (* 11.0 ?x1674)))
 (let ((?x2783 (+ (+ (+ (* 13.0 |v3:8|) (* (- 15.0) (rval2 |v2:9_st|))) (* 9.0 |v3:8|)) ?x903)))
 (let ((?x2198 (- 14.0)))
 (let ((?x326 (rval2 |v2:9_st|)))
 (let ((?x2067 (* 20.0 ?x326)))
 (let (($x818 (and (<= (+ (+ (+ |v11:0| (* 6.0 ?x264)) (* 5.0 |v9:2|)) ?x2067) ?x2198) (<= ?x2783 3.0))))
 (let ((?x1914 (rval2 |v8:3_st|)))
 (let ((?x504 (* ?x753 ?x1914)))
 (let (($x756 (<= (+ (+ (+ (* 6.0 |v11:0|) (* ?x2156 ?x264)) (* 20.0 ?x264)) ?x504) 17.0)))
 (let ((?x1519 (- 10.0)))
 (let ((?x1937 (* 8.0 |v1:10|)))
 (let ((?x1192 (+ (+ (+ (* 14.0 |v3:8|) (* (- 2.0) ?x1914)) (* 0.0 (rval2 |v6:5_st|))) ?x1937)))
 (let ((?x484 (* 3.0 ?x1914)))
 (let ((?x973 (+ (+ (+ (* 6.0 |v11:0|) (* (- 3.0) ?x264)) (* 20.0 |v11:0|)) ?x484)))
 (let ((?x316 (- 18.0)))
 (let ((?x160 (+ (+ (+ (* 18.0 ?x326) (* (- 1.0) (rval2 |v6:5_st|))) (* ?x1519 ?x264)) (* 14.0 |v11:0|))))
 (let (($x1471 (and (and (<= ?x160 ?x316) (<= ?x973 6.0)) (or (<= ?x1192 ?x1519) $x756))))
 (let ((?x50 (- 6.0)))
 (let ((?x208 (* 10.0 |v11:0|)))
 (let ((?x232 (+ (+ (+ (* 11.0 |v1:10|) (* 16.0 (rval2 |v10:1_st|))) (* 0.0 |v5:6|)) ?x208)))
 (let ((?x1053 (+ (+ (+ (* (- 11.0) |v5:6|) (* ?x441 ?x1914)) (* 20.0 |v7:4|)) (* (- 3.0) ?x1914))))
 (let ((?x1717 (- 5.0)))
 (let ((?x191 (+ (+ (+ (* ?x1519 |v11:0|) (* ?x753 |v3:8|)) (* (- 1.0) ?x1674)) (* ?x441 |v7:4|))))
 (let ((?x1693 (+ (+ (+ (* (- 12.0) (rval2 |v6:5_st|)) (* 2.0 |v5:6|)) (* 18.0 |v1:10|)) (* 10.0 (rval2 |v6:5_st|)))))
 (let (($x1681 (and (and (<= ?x1693 18.0) (<= ?x191 ?x1717)) (and (<= ?x1053 ?x753) (<= ?x232 ?x50)))))
 (let ((?x261 (rval2 |v10:1_st|)))
 (let ((?x714 (* 2.0 ?x261)))
 (let ((?x808 (+ (+ (+ (* 10.0 |v9:2|) (* (- 2.0) ?x1674)) (* 3.0 ?x264)) ?x714)))
 (let ((?x1438 (- 3.0)))
 (let ((?x2658 (+ (+ (+ (* 6.0 |v5:6|) (* 17.0 |v9:2|)) (* (- 4.0) ?x326)) (* ?x753 |v7:4|))))
 (let ((?x832 (- 12.0)))
 (let ((?x566 (+ (+ (+ (* ?x50 |v1:10|) (* 15.0 ?x1914)) (* 4.0 |v1:10|)) (* (- 19.0) ?x261))))
 (let ((?x2075 (+ (+ (+ (* 4.0 |v11:0|) ?x504) (* 7.0 |v5:6|)) (* (- 1.0) |v3:8|))))
 (let (($x970 (and (or (<= ?x2075 10.0) (<= ?x566 ?x832)) (or (<= ?x2658 ?x1438) (<= ?x808 ?x2198)))))
 (let (($x1995 (<= (+ (+ (+ (* ?x2156 ?x261) ?x504) (* 8.0 ?x1914)) (* (- 4.0) |v5:6|)) 13.0)))
 (let ((?x1224 (- 15.0)))
 (let ((?x2626 (+ (+ (+ (* 14.0 ?x326) (* 10.0 ?x326)) (* 13.0 |v5:6|)) (* ?x1438 ?x1674))))
 (let ((?x226 (+ (+ (* (- 4.0) (rval2 |v6:5_st|)) (* 9.0 ?x264)) (* (- 2.0) (rval2 |v6:5_st|)))))
 (let (($x1496 (or (<= (+ ?x226 (* 8.0 (rval2 |v6:5_st|))) 0.0) (and (<= ?x2626 ?x1224) $x1995))))
 (let ((?x1072 (* 18.0 |v7:4|)))
 (let (($x3015 (<= (+ (+ (+ (* 13.0 |v9:2|) (* ?x2744 |v9:2|)) (* 4.0 ?x261)) ?x1072) 0.0)))
 (let (($x1425 (or (or $x3015 (and $x1496 $x970)) (or (or $x1681 $x1471) (and (and $x818 (<= ?x1343 ?x2156)) $x1244)))))
 (let ((?x515 (- 4.0)))
 (let ((?x2162 (* ?x515 ?x326)))
 (let ((?x1477 (+ (+ (+ (* ?x1438 ?x326) (* 13.0 |v5:6|)) (* ?x1717 ?x326)) (* 0.0 ?x261))))
 (let ((?x84 (- 13.0)))
 (let ((?x2463 (* ?x84 |v7:4|)))
 (let (($x1731 (<= (+ (+ (+ (* 13.0 |v9:2|) (* (- 2.0) |v7:4|)) (* ?x1224 ?x264)) ?x2463) 16.0)))
 (let ((?x179 (+ (+ (+ (* ?x832 |v5:6|) (* 18.0 ?x326)) (* 8.0 |v9:2|)) (* ?x316 ?x326))))
 (let ((?x2517 (rval2 |v6:5_st|)))
 (let ((?x2181 (* 7.0 ?x2517)))
 (let (($x1783 (and (<= (+ (+ (+ (* 12.0 ?x261) ?x714) (* ?x1224 |v11:0|)) ?x2181) 3.0) (<= ?x179 16.0))))
 (let (($x102 (or (or $x1783 (and $x1731 (<= ?x1477 ?x50))) (<= (+ (+ (+ ?x1072 (* 10.0 ?x264)) (* 9.0 |v1:10|)) ?x2162) ?x1438))))
 (let ((?x2723 (+ (+ (+ (* 16.0 ?x261) (* (- 11.0) ?x2517)) (* (- 19.0) |v5:6|)) ?x903)))
 (let (($x2949 (<= (+ (+ (+ (* ?x1519 |v1:10|) ?x2181) (* ?x291 ?x2517)) (* 2.0 ?x326)) ?x1519)))
 (let ((?x1806 (* ?x515 |v7:4|)))
 (let (($x549 (<= (+ (+ (+ (* 15.0 |v9:2|) (* 19.0 |v7:4|)) (* 12.0 |v1:10|)) ?x1806) 19.0)))
 (let ((?x826 (+ (+ (+ (* 16.0 |v11:0|) (* 14.0 ?x2517)) (* 12.0 |v1:10|)) (* 6.0 |v1:10|))))
 (let ((?x1008 (* ?x2156 |v9:2|)))
 (let (($x330 (<= (+ (+ (+ (* (- 11.0) |v9:2|) (* ?x753 |v3:8|)) (* 16.0 ?x261)) ?x1008) ?x1519)))
 (let (($x1828 (<= (+ (+ (+ (* ?x515 |v11:0|) (* ?x832 ?x1674)) ?x2104) (* 4.0 ?x326)) ?x84)))
 (let (($x1826 (<= (+ (+ (+ ?x2104 (* ?x316 ?x264)) (* ?x1717 |v5:6|)) (* ?x84 |v11:0|)) 10.0)))
 (let (($x2020 (or (and (or $x1826 (and (or $x1828 $x330) (or (<= ?x826 ?x515) $x549))) $x2949) (and (<= ?x2723 ?x832) $x102))))
 (let (($x1423 (not (= |v0:11_st| (RMk1 val!1937)))))
 (let (($x937 (not (= |v2:9_st| (RMk1 val!1936)))))
 (let (($x1277 (not (= |v4:7_st| (RMk1 val!1935)))))
 (let (($x1151 (not (= |v6:5_st| (RMk1 val!1934)))))
 (let (($x1011 (not (= |v8:3_st| (RMk1 val!1933)))))
 (let (($x439 (not (= |v10:1_st| (RMk1 val!1932)))))
 (and $x439 $x1011 $x1151 $x1277 $x937 $x1423 (or $x2020 $x1425))))))))))))))))))))))))))))))))))))))))))))))))))))))))))))))))))))))))))))))))))))))))
 )
 )
 )
 )
 )
 )
 )
 )
 )
 )
 )
 )
(check-sat)
